Route #1: 32 95 31 24
Route #2: 73 53 33
Route #3: 93 75
Route #4: 30 85 11 79
Route #5: 50 19 23 21
Route #6: 100 61 97
Route #7: 91 52
Route #8: 83 71 51
Route #9: 89 98 99 62 81
Route #10: 27 8
Route #11: 17 34 64 3 40
Route #12: 44 58 12
Route #13: 18 4 66
Route #14: 84 9 92
Route #15: 68 54 86
Route #16: 1 70 76 90
Route #17: 55 16 69
Route #18: 74 13 77 88
Route #19: 39 25 28 14 63
Route #20: 10 65 42
Route #21: 78 6 49 2 7
Route #22: 37 36 29 43 45
Route #23: 59 67
Route #24: 60 57 72 87 48 26
Route #25: 38 47 82 96
Route #26: 56 94 80
Route #27: 46 20 35
Route #28: 41 22 15 5
Cost 30068
